letting n =  10
letting blocks =  [[1, 1], [1, 5], [1, 9], [2, 1], [2, 2], [2, 7], [3, 4], [3, 7], [3, 8], [4, 7], [4, 9], [5, 2], [6, 8], [6, 9], [7, 2], [7, 5], [8, 2], [8, 3], [8, 5], [9, 1], [9, 4], [9, 5], [9, 9], [9, 10], [10, 1], [10, 2], [10, 6], [10, 8]]
